TSP_Random.lp
\ENCODING=ISO-8859-1
\Problem name: ilog.cplex

Minimize
 obj: 0 x1 + 81.1396238440975 x2 + 88.3216126964236 x3 + 46.4495312147846 x4
      + 54.3297754217016 x5 + 33.4988079319056 x6 + 35.3588816240494 x7
      + 64.7611750403861 x8 + 83.7832622413883 x9 + 52.8380467222484 x10
      + 81.1396238440975 x11 + 0 x12 + 60.1383874689152 x13
      + 77.5904812532073 x14 + 63.8953769051638 x15 + 95.9600154717171 x16
      + 46.1936798400755 x17 + 19.1622410781303 x18 + 2.75288947199971 x19
      + 42.7008897410361 x20 + 88.3216126964236 x21 + 60.1383874689152 x22
      + 0 x23 + 51.7978866057162 x24 + 36.2771220713983 x25
      + 79.989237619274 x26 + 69.7365632563107 x27 + 49.475834461834 x28
      + 60.0942070419913 x29 + 85.6378872146183 x30 + 46.4495312147846 x31
      + 77.5904812532073 x32 + 51.7978866057162 x33 + 0 x34
      + 16.8457130501955 x35 + 28.3033377856109 x36 + 50.8115586695269 x37
      + 58.5855907122897 x38 + 79.3735067723675 x39 + 74.5425934317479 x40
      + 54.3297754217016 x41 + 63.8953769051638 x42 + 36.2771220713983 x43
      + 16.8457130501955 x44 + 0 x45 + 44.1270644035617 x46
      + 46.7794119279198 x47 + 45.5811935324033 x48 + 65.3802760810417 x49
      + 68.9394765339083 x50 + 33.4988079319056 x51 + 95.9600154717171 x52
      + 79.989237619274 x53 + 28.3033377856109 x54 + 44.1270644035617 x55
      + 0 x56 + 57.3093579641729 x57 + 77.0278755034513 x58
      + 98.1986251365888 x59 + 79.9180287567839 x60 + 35.3588816240494 x61
      + 46.1936798400755 x62 + 69.7365632563107 x63 + 50.8115586695269 x64
      + 46.7794119279198 x65 + 57.3093579641729 x66 + 0 x67
      + 31.7750163911544 x68 + 48.8951010087718 x69 + 23.8660050958545 x70
      + 64.7611750403861 x71 + 19.1622410781303 x72 + 49.475834461834 x73
      + 58.5855907122897 x74 + 45.5811935324033 x75 + 77.0278755034513 x76
      + 31.7750163911544 x77 + 0 x78 + 21.2281212528687 x79
      + 38.1912789005729 x80 + 83.7832622413883 x81 + 2.75288947199971 x82
      + 60.0942070419913 x83 + 79.3735067723675 x84 + 65.3802760810417 x85
      + 98.1986251365888 x86 + 48.8951010087718 x87 + 21.2281212528687 x88
      + 0 x89 + 45.3065973177938 x90 + 52.8380467222484 x91
      + 42.7008897410361 x92 + 85.6378872146183 x93 + 74.5425934317479 x94
      + 68.9394765339083 x95 + 79.9180287567839 x96 + 23.8660050958545 x97
      + 38.1912789005729 x98 + 45.3065973177938 x99 + 0 x100
Subject To
 c1:   x11 + x21 + x31 + x41 + x51 + x61 + x71 + x81 + x91  = 1
 c3:   x2 + x22 + x32 + x42 + x52 + x62 + x72 + x82 + x92  = 1
 c5:   x3 + x13 + x33 + x43 + x53 + x63 + x73 + x83 + x93  = 1
 c7:   x4 + x14 + x24 + x44 + x54 + x64 + x74 + x84 + x94  = 1
 c9:   x5 + x15 + x25 + x35 + x55 + x65 + x75 + x85 + x95  = 1
 c11:  x6 + x16 + x26 + x36 + x46 + x66 + x76 + x86 + x96  = 1
 c13:  x7 + x17 + x27 + x37 + x47 + x57 + x77 + x87 + x97  = 1
 c15:  x8 + x18 + x28 + x38 + x48 + x58 + x68 + x88 + x98  = 1
 c17:  x9 + x19 + x29 + x39 + x49 + x59 + x69 + x79 + x99  = 1
 c19:  x10 + x20 + x30 + x40 + x50 + x60 + x70 + x80 + x90  = 1
 c21:  x2 + x3 + x4 + x5 + x6 + x7 + x8 + x9 + x10  = 1
 c23:  x11 + x13 + x14 + x15 + x16 + x17 + x18 + x19 + x20  = 1
 c25:  x21 + x22 + x24 + x25 + x26 + x27 + x28 + x29 + x30  = 1
 c26:  x31 + x32 + x33 + x35 + x36 + x37 + x38 + x39 + x40  = 1
 c27:  x41 + x42 + x43 + x44 + x46 + x47 + x48 + x49 + x50  = 1
 c28:  x51 + x52 + x53 + x54 + x55 + x57 + x58 + x59 + x60  = 1
 c29:  x61 + x62 + x63 + x64 + x65 + x66 + x68 + x69 + x70  = 1
 c30:  x71 + x72 + x73 + x74 + x75 + x76 + x77 + x79 + x80  = 1
 c31:  x81 + x82 + x83 + x84 + x85 + x86 + x87 + x88 + x90  = 1
 c32:  x91 + x92 + x93 + x94 + x95 + x96 + x97 + x98 + x99  = 1
 c33:  9 x13 + x201 - x202 <= 8
 c35:  9 x14 + x201 - x203 <= 8
 c37:  9 x15 + x201 - x205 <= 8
 c39:  9 x16 + x201 - x207 <= 8
 c41:  9 x17 + x201 - x209 <= 8
 c43:  9 x18 + x201 - x211 <= 8
 c45:  9 x19 + x201 - x213 <= 8
 c47:  9 x20 + x201 - x215 <= 8
 c49:  9 x22 - x201 + x202 <= 8
 c51:  9 x24 + x202 - x203 <= 8
 c53:  9 x25 + x202 - x205 <= 8
 c55:  9 x26 + x202 - x207 <= 8
 c57:  9 x27 + x202 - x209 <= 8
 c59:  9 x28 + x202 - x211 <= 8
 c61:  9 x29 + x202 - x213 <= 8
 c63:  9 x30 + x202 - x215 <= 8
 c65:  9 x32 - x201 + x203 <= 8
 c67:  9 x33 - x202 + x203 <= 8
 c69:  9 x35 + x203 - x205 <= 8
 c71:  9 x36 + x203 - x207 <= 8
 c73:  9 x37 + x203 - x209 <= 8
 c75:  9 x38 + x203 - x211 <= 8
 c77:  9 x39 + x203 - x213 <= 8
 c79:  9 x40 + x203 - x215 <= 8
 c81:  9 x42 - x201 + x205 <= 8
 c83:  9 x43 - x202 + x205 <= 8
 c85:  9 x44 - x203 + x205 <= 8
 c87:  9 x46 + x205 - x207 <= 8
 c89:  9 x47 + x205 - x209 <= 8
 c91:  9 x48 + x205 - x211 <= 8
 c93:  9 x49 + x205 - x213 <= 8
 c95:  9 x50 + x205 - x215 <= 8
 c97:  9 x52 - x201 + x207 <= 8
 c99:  9 x53 - x202 + x207 <= 8
 c101: 9 x54 - x203 + x207 <= 8
 c103: 9 x55 - x205 + x207 <= 8
 c105: 9 x57 + x207 - x209 <= 8
 c107: 9 x58 + x207 - x211 <= 8
 c109: 9 x59 + x207 - x213 <= 8
 c111: 9 x60 + x207 - x215 <= 8
 c113: 9 x62 - x201 + x209 <= 8
 c115: 9 x63 - x202 + x209 <= 8
 c117: 9 x64 - x203 + x209 <= 8
 c119: 9 x65 - x205 + x209 <= 8
 c121: 9 x66 - x207 + x209 <= 8
 c123: 9 x68 + x209 - x211 <= 8
 c125: 9 x69 + x209 - x213 <= 8
 c127: 9 x70 + x209 - x215 <= 8
 c129: 9 x72 - x201 + x211 <= 8
 c131: 9 x73 - x202 + x211 <= 8
 c133: 9 x74 - x203 + x211 <= 8
 c135: 9 x75 - x205 + x211 <= 8
 c137: 9 x76 - x207 + x211 <= 8
 c139: 9 x77 - x209 + x211 <= 8
 c141: 9 x79 + x211 - x213 <= 8
 c143: 9 x80 + x211 - x215 <= 8
 c145: 9 x82 - x201 + x213 <= 8
 c147: 9 x83 - x202 + x213 <= 8
 c149: 9 x84 - x203 + x213 <= 8
 c151: 9 x85 - x205 + x213 <= 8
 c153: 9 x86 - x207 + x213 <= 8
 c155: 9 x87 - x209 + x213 <= 8
 c157: 9 x88 - x211 + x213 <= 8
 c159: 9 x90 + x213 - x215 <= 8
 c161: 9 x92 - x201 + x215 <= 8
 c163: 9 x93 - x202 + x215 <= 8
 c165: 9 x94 - x203 + x215 <= 8
 c167: 9 x95 - x205 + x215 <= 8
 c169: 9 x96 - x207 + x215 <= 8
 c171: 9 x97 - x209 + x215 <= 8
 c173: 9 x98 - x211 + x215 <= 8
 c175: 9 x99 - x213 + x215 <= 8
Bounds
 0 <= x1 <= 1
 0 <= x2 <= 1
 0 <= x3 <= 1
 0 <= x4 <= 1
 0 <= x5 <= 1
 0 <= x6 <= 1
 0 <= x7 <= 1
 0 <= x8 <= 1
 0 <= x9 <= 1
 0 <= x10 <= 1
 0 <= x11 <= 1
 0 <= x12 <= 1
 0 <= x13 <= 1
 0 <= x14 <= 1
 0 <= x15 <= 1
 0 <= x16 <= 1
 0 <= x17 <= 1
 0 <= x18 <= 1
 0 <= x19 <= 1
 0 <= x20 <= 1
 0 <= x21 <= 1
 0 <= x22 <= 1
 0 <= x23 <= 1
 0 <= x24 <= 1
 0 <= x25 <= 1
 0 <= x26 <= 1
 0 <= x27 <= 1
 0 <= x28 <= 1
 0 <= x29 <= 1
 0 <= x30 <= 1
 0 <= x31 <= 1
 0 <= x32 <= 1
 0 <= x33 <= 1
 0 <= x34 <= 1
 0 <= x35 <= 1
 0 <= x36 <= 1
 0 <= x37 <= 1
 0 <= x38 <= 1
 0 <= x39 <= 1
 0 <= x40 <= 1
 0 <= x41 <= 1
 0 <= x42 <= 1
 0 <= x43 <= 1
 0 <= x44 <= 1
 0 <= x45 <= 1
 0 <= x46 <= 1
 0 <= x47 <= 1
 0 <= x48 <= 1
 0 <= x49 <= 1
 0 <= x50 <= 1
 0 <= x51 <= 1
 0 <= x52 <= 1
 0 <= x53 <= 1
 0 <= x54 <= 1
 0 <= x55 <= 1
 0 <= x56 <= 1
 0 <= x57 <= 1
 0 <= x58 <= 1
 0 <= x59 <= 1
 0 <= x60 <= 1
 0 <= x61 <= 1
 0 <= x62 <= 1
 0 <= x63 <= 1
 0 <= x64 <= 1
 0 <= x65 <= 1
 0 <= x66 <= 1
 0 <= x67 <= 1
 0 <= x68 <= 1
 0 <= x69 <= 1
 0 <= x70 <= 1
 0 <= x71 <= 1
 0 <= x72 <= 1
 0 <= x73 <= 1
 0 <= x74 <= 1
 0 <= x75 <= 1
 0 <= x76 <= 1
 0 <= x77 <= 1
 0 <= x78 <= 1
 0 <= x79 <= 1
 0 <= x80 <= 1
 0 <= x81 <= 1
 0 <= x82 <= 1
 0 <= x83 <= 1
 0 <= x84 <= 1
 0 <= x85 <= 1
 0 <= x86 <= 1
 0 <= x87 <= 1
 0 <= x88 <= 1
 0 <= x89 <= 1
 0 <= x90 <= 1
 0 <= x91 <= 1
 0 <= x92 <= 1
 0 <= x93 <= 1
 0 <= x94 <= 1
 0 <= x95 <= 1
 0 <= x96 <= 1
 0 <= x97 <= 1
 0 <= x98 <= 1
 0 <= x99 <= 1
 0 <= x100 <= 1
Binaries
 x1  x2  x3  x4  x5  x6  x7  x8  x9  x10  x11  x12  x13  x14  x15  x16  x17 
 x18  x19  x20  x21  x22  x23  x24  x25  x26  x27  x28  x29  x30  x31  x32 
 x33  x34  x35  x36  x37  x38  x39  x40  x41  x42  x43  x44  x45  x46  x47 
 x48  x49  x50  x51  x52  x53  x54  x55  x56  x57  x58  x59  x60  x61  x62 
 x63  x64  x65  x66  x67  x68  x69  x70  x71  x72  x73  x74  x75  x76  x77 
 x78  x79  x80  x81  x82  x83  x84  x85  x86  x87  x88  x89  x90  x91  x92 
 x93  x94  x95  x96  x97  x98  x99  x100 
End
